c description: Random 2-CNF over 15 variables and 15 clauses
c generator: CNFgen (0.9.0)
c copyright: (C) 2012-2020 Massimo Lauria <massimo.lauria@uniroma1.it>
c url: https://massimolauria.net/cnfgen
c
p cnf 15 15
-5 11 0
1 -3 0
-4 10 0
6 -12 0
-10 14 0
-6 -14 0
-6 -7 0
-6 -10 0
-12 -13 0
-1 -10 0
3 -13 0
3 -15 0
1 -5 0
10 -11 0
1 -4 0